Content written to results/level_1/variant_random_all_theorems_model_o1_problem_1726_run_0_to_verify.txt
predicates to add:
Line
predicates to add:
Angle
predicates to add:
Line
predicates to add:
Line
predicates to add:
Line
predicates to add:
Angle
predicates to add:
Line
predicates to add:
Line
predicates to add:
Line
predicates to add:
Angle
predicates to add:
Line
predicates to add:
Line
predicates to add:
Polygon
has Polygon
has Polygon
has Polygon
has Polygon
has Polygon
has Polygon
has Polygon
predicates to add:
Angle
predicates to add:
Angle
predicates to add:
Angle
predicates to add:
Angle
predicates to add:
Line
predicates to add:
Line
predicates to add:
Angle
predicates to add:
Line
predicates to add:
Line
predicates to add:
Angle
predicates to add:
Line
predicates to add:
Line
predicates to add:
Equation
predicates to add:
Equation
predicates to add:
Equation
predicates to add:
Equation
predicates to add:
Equation
predicates to add:
Equation
Verifier result: ERROR_TIER: TIER1_THEOREM_CALL_SYNTAX_VIOLATION
Verification failed.
Theorem: cosine_theorem(1,CBA)
The language model outputs the following conclusions: Equal(Add(Pow(LengthOfLine(CA),2),Mul(2,LengthOfLine(CB),LengthOfLine(BA),Cos(MeasureOfAngle(CBA)))),Add(Pow(LengthOfLine(CB),2),Pow(LengthOfLine(BA),2)))
The correct conclusions for the theorem: Equal(Add(Pow(LengthOfLine(BA),2),Mul(2,LengthOfLine(CB),LengthOfLine(CA),Cos(MeasureOfAngle(ACB)))),Add(Pow(LengthOfLine(CB),2),Pow(LengthOfLine(CA),2)))

Model Answer:
RETRY_ANSWER:
41/63
RETRY_THEOREM_SEQUENCE:
1; cosine_theorem(1,CBA); Polygon(CBA); ["Equal(Add(Pow(LengthOfLine(CA),2),Mul(2,LengthOfLine(CB),LengthOfLine(BA),Cos(MeasureOfAngle(CBA)))),Add(Pow(LengthOfLine(CB),2),Pow(LengthOfLine(BA),2)))"]
Retry attempt: 1
Content written to results/level_1/variant_random_all_theorems_model_o1_problem_1726_run_0_to_verify.txt
predicates to add:
Line
predicates to add:
Angle
predicates to add:
Line
predicates to add:
Line
predicates to add:
Line
predicates to add:
Angle
predicates to add:
Line
predicates to add:
Line
predicates to add:
Line
predicates to add:
Angle
predicates to add:
Line
predicates to add:
Line
predicates to add:
Polygon
has Polygon
has Polygon
has Polygon
has Polygon
has Polygon
has Polygon
has Polygon
predicates to add:
Angle
predicates to add:
Angle
predicates to add:
Angle
predicates to add:
Angle
predicates to add:
Line
predicates to add:
Line
predicates to add:
Angle
predicates to add:
Line
predicates to add:
Line
predicates to add:
Angle
predicates to add:
Line
predicates to add:
Line
predicates to add:
Equation
predicates to add:
Equation
predicates to add:
Equation
predicates to add:
Equation
predicates to add:
Equation
predicates to add:
Equation
Verifier result: ERROR_TIER: TIER1_THEOREM_CALL_SYNTAX_VIOLATION
Verification failed.
Theorem: cosine_theorem(1,BCA)
The language model outputs the following conclusions: Equal(Add(Pow(LengthOfLine(CA),2),Mul(2,LengthOfLine(BC),LengthOfLine(BA),Cos(MeasureOfAngle(CBA)))),Add(Pow(LengthOfLine(BC),2),Pow(LengthOfLine(BA),2)))
The correct conclusions for the theorem: Equal(Add(Pow(LengthOfLine(CA),2),Mul(2,LengthOfLine(BC),LengthOfLine(BA),Cos(MeasureOfAngle(ABC)))),Add(Pow(LengthOfLine(BC),2),Pow(LengthOfLine(BA),2)))

Model Answer:
RETRY_ANSWER:
41/63
RETRY_THEOREM_SEQUENCE:
1; cosine_theorem(1,BCA); Polygon(BCA); ["Equal(Add(Pow(LengthOfLine(CA),2),Mul(2,LengthOfLine(BC),LengthOfLine(BA),Cos(MeasureOfAngle(CBA)))),Add(Pow(LengthOfLine(BC),2),Pow(LengthOfLine(BA),2)))"]
Retry attempt: 2
Content written to results/level_1/variant_random_all_theorems_model_o1_problem_1726_run_0_to_verify.txt
predicates to add:
Line
predicates to add:
Angle
predicates to add:
Line
predicates to add:
Line
predicates to add:
Line
predicates to add:
Angle
predicates to add:
Line
predicates to add:
Line
predicates to add:
Line
predicates to add:
Angle
predicates to add:
Line
predicates to add:
Line
predicates to add:
Polygon
has Polygon
has Polygon
has Polygon
has Polygon
has Polygon
has Polygon
has Polygon
predicates to add:
Angle
predicates to add:
Angle
predicates to add:
Angle
predicates to add:
Angle
predicates to add:
Line
predicates to add:
Line
predicates to add:
Angle
predicates to add:
Line
predicates to add:
Line
predicates to add:
Angle
predicates to add:
Line
predicates to add:
Line
predicates to add:
Equation
predicates to add:
Equation
predicates to add:
Equation
predicates to add:
Equation
predicates to add:
Equation
predicates to add:
Equation
Verifier result: ERROR_TIER: TIER3_GOAL_NOT_REACHED
verification failed.

- Goal: cosine of angle CBA
- Model answer: 0.6507936507936508
- Error: Your proof doesn't provide enough information to determine this value. You need to add theorems that specifically constrain cosine CBA.
- Available premises:
  Polygons: ABC, ACB
- Theorems related to the goal:
  None found that constrain this goal
- Solver constraints directly related to this goal:
  cos_CBA <= 1
  cos_CBA >= -1
  ∠ABC <= 180
  ∠ABC > 0

Please fix the proof.
Model Answer:
RETRY_ANSWER:
41/63
RETRY_THEOREM_SEQUENCE:
1; cosine_theorem(1,BCA); Polygon(BCA); ["Equal(Add(Pow(LengthOfLine(CA),2),Mul(2,LengthOfLine(BC),LengthOfLine(BA),Cos(MeasureOfAngle(ABC)))),Add(Pow(LengthOfLine(BC),2),Pow(LengthOfLine(BA),2)))"]
Retry attempt: 3
Content written to results/level_1/variant_random_all_theorems_model_o1_problem_1726_run_0_to_verify.txt
predicates to add:
Line
predicates to add:
Angle
predicates to add:
Line
predicates to add:
Line
predicates to add:
Line
predicates to add:
Angle
predicates to add:
Line
predicates to add:
Line
predicates to add:
Line
predicates to add:
Angle
predicates to add:
Line
predicates to add:
Line
predicates to add:
Polygon
has Polygon
has Polygon
has Polygon
has Polygon
has Polygon
has Polygon
has Polygon
predicates to add:
Angle
predicates to add:
Angle
predicates to add:
Angle
predicates to add:
Angle
predicates to add:
Line
predicates to add:
Line
predicates to add:
Angle
predicates to add:
Line
predicates to add:
Line
predicates to add:
Angle
predicates to add:
Line
predicates to add:
Line
predicates to add:
Equation
predicates to add:
Equation
predicates to add:
Equation
predicates to add:
Equation
predicates to add:
Equation
predicates to add:
Equation
Verifier result: ERROR_TIER: TIER1_THEOREM_CALL_SYNTAX_VIOLATION
Verification failed.
Theorem: cosine_theorem(1,BAC)
The language model outputs the following conclusions: Equal(Add(Pow(LengthOfLine(AC),2),Mul(2,LengthOfLine(BA),LengthOfLine(BC),Cos(MeasureOfAngle(ABC)))),Add(Pow(LengthOfLine(BA),2),Pow(LengthOfLine(BC),2)))
The correct conclusions for the theorem: Equal(Add(Pow(LengthOfLine(AC),2),Mul(2,LengthOfLine(BA),LengthOfLine(BC),Cos(MeasureOfAngle(CBA)))),Add(Pow(LengthOfLine(BA),2),Pow(LengthOfLine(BC),2)))

Model Answer:
RETRY_ANSWER:
41/63
RETRY_THEOREM_SEQUENCE:
1; cosine_theorem(1,BAC); Polygon(BAC); ["Equal(Add(Pow(LengthOfLine(AC),2),Mul(2,LengthOfLine(BA),LengthOfLine(BC),Cos(MeasureOfAngle(ABC)))),Add(Pow(LengthOfLine(BA),2),Pow(LengthOfLine(BC),2)))"]
Retry attempt: 4
Content written to results/level_1/variant_random_all_theorems_model_o1_problem_1726_run_0_to_verify.txt
predicates to add:
Line
predicates to add:
Angle
predicates to add:
Line
predicates to add:
Line
predicates to add:
Line
predicates to add:
Angle
predicates to add:
Line
predicates to add:
Line
predicates to add:
Line
predicates to add:
Angle
predicates to add:
Line
predicates to add:
Line
predicates to add:
Polygon
has Polygon
has Polygon
has Polygon
has Polygon
has Polygon
has Polygon
has Polygon
predicates to add:
Angle
predicates to add:
Angle
predicates to add:
Angle
predicates to add:
Angle
predicates to add:
Line
predicates to add:
Line
predicates to add:
Angle
predicates to add:
Line
predicates to add:
Line
predicates to add:
Angle
predicates to add:
Line
predicates to add:
Line
predicates to add:
Equation
predicates to add:
Equation
predicates to add:
Equation
predicates to add:
Equation
predicates to add:
Equation
predicates to add:
Equation
Theorem sequence verified correctly
Content written to results/level_1/variant_random_all_theorems_model_o1_problem_1726_run_0.txt
